NAME : gr137Preorder.18631.tour
COMMENT : Length = 18631
COMMENT : Found by LKH [Keld Helsgaun] Thu Apr 23 18:17:53 2020
TYPE : TOUR
DIMENSION : 137
TOUR_SECTION
1
11
9
8
10
29
30
31
32
33
34
35
40
39
38
37
36
41
12
13
14
15
17
16
45
46
47
48
42
43
44
49
50
51
72
73
74
75
76
77
78
79
80
81
86
82
87
88
71
89
90
91
93
94
96
137
136
85
84
83
135
134
133
132
131
130
129
128
127
124
123
122
121
120
119
118
111
113
112
110
109
108
107
106
105
115
114
116
117
125
126
102
103
104
101
100
99
98
97
95
92
70
69
68
67
66
65
64
63
62
61
58
59
60
55
56
57
54
53
52
28
27
26
24
25
23
22
21
20
18
5
19
7
6
4
3
2
-1
EOF
